\ Model p-dispersion Problem
\ LP format - for model browsing. Use MPS format to capture full model detail.
Maximize
  D_min
Subject To
 Num_limit: Select[0] + Select[1] + Select[2] + Select[3] + Select[4]
   + Select[5] + Select[6] + Select[7] + Select[8] + Select[9] = 2
 Min_dist[0,1]: - 100 Select[0] - 100 Select[1] - D_min
   >= -200.6547424155554
 Min_dist[0,2]: - 100 Select[0] - 100 Select[2] - D_min
   >= -200.4853970726921
 Min_dist[0,3]: - 100 Select[0] - 100 Select[3] - D_min
   >= -200.4586657108334
 Min_dist[0,4]: - 100 Select[0] - 100 Select[4] - D_min
   >= -200.4071494384376
 Min_dist[0,5]: - 100 Select[0] - 100 Select[5] - D_min
   >= -200.2611532082814
 Min_dist[0,6]: - 100 Select[0] - 100 Select[6] - D_min
   >= -200.5625881161454
 Min_dist[0,7]: - 100 Select[0] - 100 Select[7] - D_min
   >= -200.5555208622409
 Min_dist[0,8]: - 100 Select[0] - 100 Select[8] - D_min
   >= -200.2341287877344
 Min_dist[0,9]: - 100 Select[0] - 100 Select[9] - D_min
   >= -200.1482124359006
 Min_dist[1,0]: - 100 Select[0] - 100 Select[1] - D_min
   >= -200.6547424155554
 Min_dist[1,2]: - 100 Select[1] - 100 Select[2] - D_min
   >= -200.1718957156409
 Min_dist[1,3]: - 100 Select[1] - 100 Select[3] - D_min
   >= -200.3659301328871
 Min_dist[1,4]: - 100 Select[1] - 100 Select[4] - D_min
   >= -200.3292667100192
 Min_dist[1,5]: - 100 Select[1] - 100 Select[5] - D_min
   >= -200.5459848608074
 Min_dist[1,6]: - 100 Select[1] - 100 Select[6] - D_min
   >= -200.5158916469879
 Min_dist[1,7]: - 100 Select[1] - 100 Select[7] - D_min
   >= -200.1979761417271
 Min_dist[1,8]: - 100 Select[1] - 100 Select[8] - D_min
   >= -200.8736577103803
 Min_dist[1,9]: - 100 Select[1] - 100 Select[9] - D_min
   >= -200.7520593527633
 Min_dist[2,0]: - 100 Select[0] - 100 Select[2] - D_min
   >= -200.4853970726921
 Min_dist[2,1]: - 100 Select[1] - 100 Select[2] - D_min
   >= -200.1718957156409
 Min_dist[2,3]: - 100 Select[2] - 100 Select[3] - D_min
   >= -200.2908542069437
 Min_dist[2,4]: - 100 Select[2] - 100 Select[4] - D_min
   >= -200.1817861415756
 Min_dist[2,5]: - 100 Select[2] - 100 Select[5] - D_min
   >= -200.4091834956239
 Min_dist[2,6]: - 100 Select[2] - 100 Select[6] - D_min
   >= -200.4192267694507
 Min_dist[2,7]: - 100 Select[2] - 100 Select[7] - D_min
   >= -200.1879285183469
 Min_dist[2,8]: - 100 Select[2] - 100 Select[8] - D_min
   >= -200.7019200334748
 Min_dist[2,9]: - 100 Select[2] - 100 Select[9] - D_min
   >= -200.5801776477085
 Min_dist[3,0]: - 100 Select[0] - 100 Select[3] - D_min
   >= -200.4586657108334
 Min_dist[3,1]: - 100 Select[1] - 100 Select[3] - D_min
   >= -200.3659301328871
 Min_dist[3,2]: - 100 Select[2] - 100 Select[3] - D_min
   >= -200.2908542069437
 Min_dist[3,4]: - 100 Select[3] - 100 Select[4] - D_min
   >= -200.4157062241167
 Min_dist[3,5]: - 100 Select[3] - 100 Select[5] - D_min
   >= -200.2366549901393
 Min_dist[3,6]: - 100 Select[3] - 100 Select[6] - D_min
   >= -200.6758055392552
 Min_dist[3,7]: - 100 Select[3] - 100 Select[7] - D_min
   >= -200.1736532876021
 Min_dist[3,8]: - 100 Select[3] - 100 Select[8] - D_min
   >= -200.691047055375
 Min_dist[3,9]: - 100 Select[3] - 100 Select[9] - D_min
   >= -200.5994356756437
 Min_dist[4,0]: - 100 Select[0] - 100 Select[4] - D_min
   >= -200.4071494384376
 Min_dist[4,1]: - 100 Select[1] - 100 Select[4] - D_min
   >= -200.3292667100192
 Min_dist[4,2]: - 100 Select[2] - 100 Select[4] - D_min
   >= -200.1817861415756
 Min_dist[4,3]: - 100 Select[3] - 100 Select[4] - D_min
   >= -200.4157062241167
 Min_dist[4,5]: - 100 Select[4] - 100 Select[5] - D_min
   >= -200.4386330250581
 Min_dist[4,6]: - 100 Select[4] - 100 Select[6] - D_min
   >= -200.2601163464918
 Min_dist[4,7]: - 100 Select[4] - 100 Select[7] - D_min
   >= -200.3618087097097
 Min_dist[4,8]: - 100 Select[4] - 100 Select[8] - D_min
   >= -200.5891870864315
 Min_dist[4,9]: - 100 Select[4] - 100 Select[9] - D_min
   >= -200.4614387005448
 Min_dist[5,0]: - 100 Select[0] - 100 Select[5] - D_min
   >= -200.2611532082814
 Min_dist[5,1]: - 100 Select[1] - 100 Select[5] - D_min
   >= -200.5459848608074
 Min_dist[5,2]: - 100 Select[2] - 100 Select[5] - D_min
   >= -200.4091834956239
 Min_dist[5,3]: - 100 Select[3] - 100 Select[5] - D_min
   >= -200.2366549901393
 Min_dist[5,4]: - 100 Select[4] - 100 Select[5] - D_min
   >= -200.4386330250581
 Min_dist[5,6]: - 100 Select[5] - 100 Select[6] - D_min
   >= -200.6747446549331
 Min_dist[5,7]: - 100 Select[5] - 100 Select[7] - D_min
   >= -200.3854338527728
 Min_dist[5,8]: - 100 Select[5] - 100 Select[8] - D_min
   >= -200.4781014103269
 Min_dist[5,9]: - 100 Select[5] - 100 Select[9] - D_min
   >= -200.409357043171
 Min_dist[6,0]: - 100 Select[0] - 100 Select[6] - D_min
   >= -200.5625881161454
 Min_dist[6,1]: - 100 Select[1] - 100 Select[6] - D_min
   >= -200.5158916469879
 Min_dist[6,2]: - 100 Select[2] - 100 Select[6] - D_min
   >= -200.4192267694507
 Min_dist[6,3]: - 100 Select[3] - 100 Select[6] - D_min
   >= -200.6758055392552
 Min_dist[6,4]: - 100 Select[4] - 100 Select[6] - D_min
   >= -200.2601163464918
 Min_dist[6,5]: - 100 Select[5] - 100 Select[6] - D_min
   >= -200.6747446549331
 Min_dist[6,7]: - 100 Select[6] - 100 Select[7] - D_min
   >= -200.6071071953098
 Min_dist[6,8]: - 100 Select[6] - 100 Select[8] - D_min
   >= -200.6676746746006
 Min_dist[6,9]: - 100 Select[6] - 100 Select[9] - D_min
   >= -200.5482759726991
 Min_dist[7,0]: - 100 Select[0] - 100 Select[7] - D_min
   >= -200.5555208622409
 Min_dist[7,1]: - 100 Select[1] - 100 Select[7] - D_min
   >= -200.1979761417271
 Min_dist[7,2]: - 100 Select[2] - 100 Select[7] - D_min
   >= -200.1879285183469
 Min_dist[7,3]: - 100 Select[3] - 100 Select[7] - D_min
   >= -200.1736532876021
 Min_dist[7,4]: - 100 Select[4] - 100 Select[7] - D_min
   >= -200.3618087097097
 Min_dist[7,5]: - 100 Select[5] - 100 Select[7] - D_min
   >= -200.3854338527728
 Min_dist[7,6]: - 100 Select[6] - 100 Select[7] - D_min
   >= -200.6071071953098
 Min_dist[7,8]: - 100 Select[7] - 100 Select[8] - D_min
   >= -200.7881201928093
 Min_dist[7,9]: - 100 Select[7] - 100 Select[9] - D_min
   >= -200.6793128830173
 Min_dist[8,0]: - 100 Select[0] - 100 Select[8] - D_min
   >= -200.2341287877344
 Min_dist[8,1]: - 100 Select[1] - 100 Select[8] - D_min
   >= -200.8736577103803
 Min_dist[8,2]: - 100 Select[2] - 100 Select[8] - D_min
   >= -200.7019200334748
 Min_dist[8,3]: - 100 Select[3] - 100 Select[8] - D_min
   >= -200.691047055375
 Min_dist[8,4]: - 100 Select[4] - 100 Select[8] - D_min
   >= -200.5891870864315
 Min_dist[8,5]: - 100 Select[5] - 100 Select[8] - D_min
   >= -200.4781014103269
 Min_dist[8,6]: - 100 Select[6] - 100 Select[8] - D_min
   >= -200.6676746746006
 Min_dist[8,7]: - 100 Select[7] - 100 Select[8] - D_min
   >= -200.7881201928093
 Min_dist[8,9]: - 100 Select[8] - 100 Select[9] - D_min
   >= -200.1280840884895
 Min_dist[9,0]: - 100 Select[0] - 100 Select[9] - D_min
   >= -200.1482124359006
 Min_dist[9,1]: - 100 Select[1] - 100 Select[9] - D_min
   >= -200.7520593527633
 Min_dist[9,2]: - 100 Select[2] - 100 Select[9] - D_min
   >= -200.5801776477085
 Min_dist[9,3]: - 100 Select[3] - 100 Select[9] - D_min
   >= -200.5994356756437
 Min_dist[9,4]: - 100 Select[4] - 100 Select[9] - D_min
   >= -200.4614387005448
 Min_dist[9,5]: - 100 Select[5] - 100 Select[9] - D_min
   >= -200.409357043171
 Min_dist[9,6]: - 100 Select[6] - 100 Select[9] - D_min
   >= -200.5482759726991
 Min_dist[9,7]: - 100 Select[7] - 100 Select[9] - D_min
   >= -200.6793128830173
 Min_dist[9,8]: - 100 Select[8] - 100 Select[9] - D_min
   >= -200.1280840884895
Bounds
Binaries
 Select[0] Select[1] Select[2] Select[3] Select[4] Select[5] Select[6]
 Select[7] Select[8] Select[9]
End
